(set-info :smt-lib-version 2.6)
(set-logic QF_UF)
(set-info :source |
Generated by: Aman Goel (amangoel@umich.edu), Karem A. Sakallah (karem@umich.edu)
Generated on: 2018-04-06

Generated by the tool Averroes 2 (successor of [1]) which implements safety property
verification on hardware systems.

This SMT problem belongs to a set of SMT problems generated by applying Averroes 2
to benchmarks derived from [2-5].

A total of 412 systems (345 from [2], 19 from [3], 26 from [4], 22 from [5]) were
syntactically converted from their original formats (using [6, 7]), and given to 
Averroes 2 to perform property checking with abstraction (wide bit-vectors -> terms, 
wide operators -> UF) using SMT solvers [8, 9].

[1] Lee S., Sakallah K.A. (2014) Unbounded Scalable Verification Based on Approximate
Property-Directed Reachability and Datapath Abstraction. In: Biere A., Bloem R. (eds)
Computer Aided Verification. CAV 2014. Lecture Notes in Computer Science, vol 8559.
Springer, Cham
[2] http://fmv.jku.at/aiger/index.html#beem
[3] http://www.cs.cmu.edu/~modelcheck/vcegar
[4] http://www.cprover.org/hardware/v2c
[5] http://github.com/aman-goel/verilogbench
[6] http://www.clifford.at/yosys
[7] http://github.com/chengyinwu/V3
[8] http://github.com/Z3Prover/z3
[9] http://github.com/SRI-CSL/yices2

id: adding.5.prop1
query-maker: "Yices 2"
query-time: 0.590000 ms
query-class: abstract
query-category: oneshot
query-type: cti
status: sat
|)
(set-info :license "https://creativecommons.org/licenses/by/4.0/")
(set-info :category "industrial")

;
(set-info :status sat)
(declare-sort utt$16 0)
(declare-sort utt$32 0)
(declare-fun Add_32_32_32 (utt$32 utt$32 ) utt$32)
(declare-fun BitWiseNot_32_32 (utt$32 ) utt$32)
(declare-fun BitWiseXor_16_16_16 (utt$16 utt$16 ) utt$16)
(declare-fun Concat_32_16_16 (utt$16 utt$16 ) utt$32)
(declare-fun Extract_16_15_0_32 (utt$32 ) utt$16)
(declare-fun Extract_1_15_15_16 (utt$16 ) Bool)
(declare-fun GrEq_1_32_32 (utt$32 utt$32 ) Bool)
(declare-fun ShiftR_32_32_32 (utt$32 utt$32 ) utt$32)
(declare-fun y$1 () Bool)
(declare-fun y$101 () Bool)
(declare-fun y$103 () Bool)
(declare-fun y$106 () Bool)
(declare-fun y$107 () Bool)
(declare-fun y$11 () Bool)
(declare-fun y$110 () Bool)
(declare-fun y$111 () Bool)
(declare-fun y$112 () Bool)
(declare-fun y$116 () Bool)
(declare-fun y$117 () Bool)
(declare-fun y$120 () Bool)
(declare-fun y$124 () Bool)
(declare-fun y$127 () Bool)
(declare-fun y$129 () Bool)
(declare-fun y$13 () Bool)
(declare-fun y$132 () Bool)
(declare-fun y$133 () Bool)
(declare-fun y$136 () Bool)
(declare-fun y$137 () Bool)
(declare-fun y$138 () Bool)
(declare-fun y$142 () Bool)
(declare-fun y$143 () Bool)
(declare-fun y$146 () Bool)
(declare-fun y$150 () Bool)
(declare-fun y$153 () Bool)
(declare-fun y$158 () Bool)
(declare-fun y$16 () Bool)
(declare-fun y$161 () Bool)
(declare-fun y$164 () Bool)
(declare-fun y$167 () Bool)
(declare-fun y$172 () Bool)
(declare-fun y$177 () Bool)
(declare-fun y$18 () Bool)
(declare-fun y$180 () Bool)
(declare-fun y$185 () Bool)
(declare-fun y$190 () Bool)
(declare-fun y$195 () Bool)
(declare-fun y$196 () Bool)
(declare-fun y$199 () Bool)
(declare-fun y$20 () Bool)
(declare-fun y$200 () Bool)
(declare-fun y$203 () Bool)
(declare-fun y$204 () Bool)
(declare-fun y$207 () Bool)
(declare-fun y$208 () Bool)
(declare-fun y$211 () Bool)
(declare-fun y$216 () Bool)
(declare-fun y$219 () Bool)
(declare-fun y$222 () Bool)
(declare-fun y$223 () Bool)
(declare-fun y$226 () Bool)
(declare-fun y$229 () Bool)
(declare-fun y$230 () Bool)
(declare-fun y$233 () Bool)
(declare-fun y$236 () Bool)
(declare-fun y$237 () Bool)
(declare-fun y$240 () Bool)
(declare-fun y$243 () Bool)
(declare-fun y$244 () Bool)
(declare-fun y$249 () Bool)
(declare-fun y$252 () Bool)
(declare-fun y$255 () Bool)
(declare-fun y$258 () Bool)
(declare-fun y$259 () Bool)
(declare-fun y$260 () Bool)
(declare-fun y$263 () Bool)
(declare-fun y$268 () Bool)
(declare-fun y$271 () Bool)
(declare-fun y$274 () Bool)
(declare-fun y$277 () Bool)
(declare-fun y$278 () Bool)
(declare-fun y$281 () Bool)
(declare-fun y$284 () Bool)
(declare-fun y$291 () Bool)
(declare-fun y$292 () Bool)
(declare-fun y$295 () Bool)
(declare-fun y$298 () Bool)
(declare-fun y$3 () Bool)
(declare-fun y$301 () Bool)
(declare-fun y$302 () Bool)
(declare-fun y$303 () Bool)
(declare-fun y$304 () Bool)
(declare-fun y$307 () Bool)
(declare-fun y$312 () Bool)
(declare-fun y$313 () Bool)
(declare-fun y$316 () Bool)
(declare-fun y$319 () Bool)
(declare-fun y$322 () Bool)
(declare-fun y$323 () Bool)
(declare-fun y$326 () Bool)
(declare-fun y$327 () Bool)
(declare-fun y$330 () Bool)
(declare-fun y$337 () Bool)
(declare-fun y$338 () Bool)
(declare-fun y$339 () Bool)
(declare-fun y$34 () Bool)
(declare-fun y$342 () Bool)
(declare-fun y$345 () Bool)
(declare-fun y$346 () Bool)
(declare-fun y$359 () Bool)
(declare-fun y$360 () Bool)
(declare-fun y$361 () Bool)
(declare-fun y$364 () Bool)
(declare-fun y$37 () Bool)
(declare-fun y$378 () Bool)
(declare-fun y$381 () Bool)
(declare-fun y$382 () Bool)
(declare-fun y$383 () Bool)
(declare-fun y$394 () Bool)
(declare-fun y$395 () Bool)
(declare-fun y$400 () Bool)
(declare-fun y$401 () Bool)
(declare-fun y$402 () Bool)
(declare-fun y$403 () Bool)
(declare-fun y$404 () Bool)
(declare-fun y$405 () Bool)
(declare-fun y$407 () Bool)
(declare-fun y$409 () Bool)
(declare-fun y$420 () Bool)
(declare-fun y$440 () Bool)
(declare-fun y$443 () Bool)
(declare-fun y$446 () Bool)
(declare-fun y$447 () Bool)
(declare-fun y$450 () Bool)
(declare-fun y$451 () Bool)
(declare-fun y$452 () Bool)
(declare-fun y$453 () Bool)
(declare-fun y$476 () Bool)
(declare-fun y$477 () Bool)
(declare-fun y$478 () Bool)
(declare-fun y$479 () Bool)
(declare-fun y$480 () Bool)
(declare-fun y$482 () Bool)
(declare-fun y$488 () Bool)
(declare-fun y$489 () Bool)
(declare-fun y$490 () Bool)
(declare-fun y$491 () Bool)
(declare-fun y$5 () Bool)
(declare-fun y$506 () Bool)
(declare-fun y$507 () Bool)
(declare-fun y$508 () Bool)
(declare-fun y$509 () Bool)
(declare-fun y$511 () Bool)
(declare-fun y$52 () Bool)
(declare-fun y$523 () Bool)
(declare-fun y$524 () Bool)
(declare-fun y$525 () Bool)
(declare-fun y$526 () Bool)
(declare-fun y$528 () Bool)
(declare-fun y$533 () Bool)
(declare-fun y$534 () Bool)
(declare-fun y$541 () Bool)
(declare-fun y$542 () Bool)
(declare-fun y$557 () Bool)
(declare-fun y$558 () Bool)
(declare-fun y$559 () Bool)
(declare-fun y$560 () Bool)
(declare-fun y$566 () Bool)
(declare-fun y$567 () Bool)
(declare-fun y$580 () Bool)
(declare-fun y$581 () Bool)
(declare-fun y$582 () Bool)
(declare-fun y$583 () Bool)
(declare-fun y$584 () Bool)
(declare-fun y$585 () Bool)
(declare-fun y$68 () utt$16)
(declare-fun y$7 () Bool)
(declare-fun y$75 () Bool)
(declare-fun y$78 () Bool)
(declare-fun y$9 () Bool)
(declare-fun y$94 () utt$16)
(declare-fun y$a_Q_a1 () Bool)
(declare-fun y$a_Q_a1$next () Bool)
(declare-fun y$a_Q_a2 () Bool)
(declare-fun y$a_Q_a2$next () Bool)
(declare-fun y$a_R_a1 () Bool)
(declare-fun y$a_R_a1$next () Bool)
(declare-fun y$a_R_a1$next_rhs () Bool)
(declare-fun y$a_R_a1$next_rhs_op () Bool)
(declare-fun y$a_R_a2 () Bool)
(declare-fun y$a_R_a2$next () Bool)
(declare-fun y$a_R_a2$next_rhs () Bool)
(declare-fun y$a_R_a2$next_rhs_op () Bool)
(declare-fun y$a_S_a1 () Bool)
(declare-fun y$a_S_a1$next () Bool)
(declare-fun y$a_S_a1$next_rhs () Bool)
(declare-fun y$a_S_a1$next_rhs_op () Bool)
(declare-fun y$a_S_a2 () Bool)
(declare-fun y$a_S_a2$next () Bool)
(declare-fun y$a_S_a2$next_rhs () Bool)
(declare-fun y$a_S_a2$next_rhs_op () Bool)
(declare-fun y$dve_invalid () Bool)
(declare-fun y$dve_invalid$next () Bool)
(declare-fun y$f0 () Bool)
(declare-fun y$f0$next () Bool)
(declare-fun y$f1 () Bool)
(declare-fun y$f1$next () Bool)
(declare-fun y$f2 () Bool)
(declare-fun y$f2$next () Bool)
(declare-fun y$f3 () Bool)
(declare-fun y$f3$next () Bool)
(declare-fun y$f4 () Bool)
(declare-fun y$f4$next () Bool)
(declare-fun y$f5 () Bool)
(declare-fun y$f5$next () Bool)
(declare-fun y$id20 () Bool)
(declare-fun y$id20$next () Bool)
(declare-fun y$id20$next_op () Bool)
(declare-fun y$id20_op () Bool)
(declare-fun y$n0s16 () utt$16)
(declare-fun y$n0s32 () utt$32)
(declare-fun y$n16s32 () utt$32)
(declare-fun y$n1s16 () utt$16)
(declare-fun y$n500s32 () utt$32)
(declare-fun y$n55640064s32 () utt$32)
(declare-fun y$n848s16 () utt$16)
(declare-fun y$n849s16 () utt$16)
(declare-fun y$n849s32 () utt$32)
(declare-fun y$prop () Bool)
(declare-fun y$prop$next () Bool)
(declare-fun y$s$3 () utt$32)
(declare-fun y$s$3$next () utt$32)
(declare-fun y$s$3$next_op () utt$32)
(declare-fun y$s$3_op () utt$32)
(declare-fun y$s$4 () utt$32)
(declare-fun y$s$4$next () utt$32)
(declare-fun y$s$4$next_op () utt$32)
(declare-fun y$s$4_op () utt$32)
(declare-fun y$s$6 () utt$32)
(declare-fun y$s$6_op () utt$32)
(declare-fun y$s$7 () utt$32)
(declare-fun y$s$7_op () utt$32)
(declare-fun y$s$8 () utt$32)
(declare-fun y$s$8_op () utt$32)
(declare-fun y$s$9 () utt$32)
(declare-fun y$s$9_op () utt$32)
(declare-fun y$v3_1517448492_101 () Bool)
(declare-fun y$v3_1517448492_101_op () Bool)
(declare-fun y$v3_1517448492_103 () Bool)
(declare-fun y$v3_1517448492_103_op () Bool)
(declare-fun y$v3_1517448492_105 () Bool)
(declare-fun y$v3_1517448492_105_op () Bool)
(declare-fun y$v3_1517448492_107 () Bool)
(declare-fun y$v3_1517448492_107_op () Bool)
(declare-fun y$v3_1517448492_108 () Bool)
(declare-fun y$v3_1517448492_108_op () Bool)
(declare-fun y$v3_1517448492_109 () Bool)
(declare-fun y$v3_1517448492_109_op () Bool)
(declare-fun y$v3_1517448492_110 () Bool)
(declare-fun y$v3_1517448492_110_op () Bool)
(declare-fun y$v3_1517448492_112 () Bool)
(declare-fun y$v3_1517448492_112_op () Bool)
(declare-fun y$v3_1517448492_113 () Bool)
(declare-fun y$v3_1517448492_113_op () Bool)
(declare-fun y$v3_1517448492_115 () Bool)
(declare-fun y$v3_1517448492_115_op () Bool)
(declare-fun y$v3_1517448492_116 () Bool)
(declare-fun y$v3_1517448492_116_op () Bool)
(declare-fun y$v3_1517448492_118 () Bool)
(declare-fun y$v3_1517448492_118_op () Bool)
(declare-fun y$v3_1517448492_119 () Bool)
(declare-fun y$v3_1517448492_119_op () Bool)
(declare-fun y$v3_1517448492_121 () Bool)
(declare-fun y$v3_1517448492_121_op () Bool)
(declare-fun y$v3_1517448492_122 () Bool)
(declare-fun y$v3_1517448492_122_op () Bool)
(declare-fun y$v3_1517448492_123 () Bool)
(declare-fun y$v3_1517448492_123_op () Bool)
(declare-fun y$v3_1517448492_125 () Bool)
(declare-fun y$v3_1517448492_125_op () Bool)
(declare-fun y$v3_1517448492_126 () Bool)
(declare-fun y$v3_1517448492_126_op () Bool)
(declare-fun y$v3_1517448492_128 () Bool)
(declare-fun y$v3_1517448492_128_op () Bool)
(declare-fun y$v3_1517448492_13 () utt$16)
(declare-fun y$v3_1517448492_13$next () utt$16)
(declare-fun y$v3_1517448492_13$next_op () utt$16)
(declare-fun y$v3_1517448492_130 () Bool)
(declare-fun y$v3_1517448492_130_op () Bool)
(declare-fun y$v3_1517448492_131 () Bool)
(declare-fun y$v3_1517448492_131_op () Bool)
(declare-fun y$v3_1517448492_132 () Bool)
(declare-fun y$v3_1517448492_132_op () Bool)
(declare-fun y$v3_1517448492_134 () Bool)
(declare-fun y$v3_1517448492_134_op () Bool)
(declare-fun y$v3_1517448492_135 () Bool)
(declare-fun y$v3_1517448492_135_op () Bool)
(declare-fun y$v3_1517448492_137 () Bool)
(declare-fun y$v3_1517448492_137_op () Bool)
(declare-fun y$v3_1517448492_138 () Bool)
(declare-fun y$v3_1517448492_138_op () Bool)
(declare-fun y$v3_1517448492_13_op () utt$16)
(declare-fun y$v3_1517448492_140 () Bool)
(declare-fun y$v3_1517448492_140_op () Bool)
(declare-fun y$v3_1517448492_141 () Bool)
(declare-fun y$v3_1517448492_141_op () Bool)
(declare-fun y$v3_1517448492_142 () Bool)
(declare-fun y$v3_1517448492_142_op () Bool)
(declare-fun y$v3_1517448492_143 () Bool)
(declare-fun y$v3_1517448492_143_op () Bool)
(declare-fun y$v3_1517448492_145 () Bool)
(declare-fun y$v3_1517448492_145_op () Bool)
(declare-fun y$v3_1517448492_146 () Bool)
(declare-fun y$v3_1517448492_146_op () Bool)
(declare-fun y$v3_1517448492_148 () Bool)
(declare-fun y$v3_1517448492_148_op () Bool)
(declare-fun y$v3_1517448492_150 () Bool)
(declare-fun y$v3_1517448492_150_op () Bool)
(declare-fun y$v3_1517448492_151 () Bool)
(declare-fun y$v3_1517448492_151_op () Bool)
(declare-fun y$v3_1517448492_152 () Bool)
(declare-fun y$v3_1517448492_152_op () Bool)
(declare-fun y$v3_1517448492_154 () Bool)
(declare-fun y$v3_1517448492_154_op () Bool)
(declare-fun y$v3_1517448492_155 () Bool)
(declare-fun y$v3_1517448492_155_op () Bool)
(declare-fun y$v3_1517448492_157 () Bool)
(declare-fun y$v3_1517448492_157_op () Bool)
(declare-fun y$v3_1517448492_158 () Bool)
(declare-fun y$v3_1517448492_158_op () Bool)
(declare-fun y$v3_1517448492_160 () Bool)
(declare-fun y$v3_1517448492_160_op () Bool)
(declare-fun y$v3_1517448492_161 () Bool)
(declare-fun y$v3_1517448492_161_op () Bool)
(declare-fun y$v3_1517448492_162 () Bool)
(declare-fun y$v3_1517448492_162_op () Bool)
(declare-fun y$v3_1517448492_163 () Bool)
(declare-fun y$v3_1517448492_163_op () Bool)
(declare-fun y$v3_1517448492_17 () utt$32)
(declare-fun y$v3_1517448492_17$next () utt$32)
(declare-fun y$v3_1517448492_17$next_op () utt$32)
(declare-fun y$v3_1517448492_17_op () utt$32)
(declare-fun y$v3_1517448492_18 () utt$32)
(declare-fun y$v3_1517448492_18$next () utt$32)
(declare-fun y$v3_1517448492_18$next_op () utt$32)
(declare-fun y$v3_1517448492_18_op () utt$32)
(declare-fun y$v3_1517448492_19 () utt$32)
(declare-fun y$v3_1517448492_19$next () utt$32)
(declare-fun y$v3_1517448492_19$next_op () utt$32)
(declare-fun y$v3_1517448492_19_op () utt$32)
(declare-fun y$v3_1517448492_25 () utt$16)
(declare-fun y$v3_1517448492_25$next () utt$16)
(declare-fun y$v3_1517448492_25$next_op () utt$16)
(declare-fun y$v3_1517448492_25_op () utt$16)
(declare-fun y$v3_1517448492_26 () utt$16)
(declare-fun y$v3_1517448492_26$next () utt$16)
(declare-fun y$v3_1517448492_26$next_op () utt$16)
(declare-fun y$v3_1517448492_26_op () utt$16)
(declare-fun y$v3_1517448492_31 () utt$32)
(declare-fun y$v3_1517448492_31_op () utt$32)
(declare-fun y$v3_1517448492_32 () utt$32)
(declare-fun y$v3_1517448492_32_op () utt$32)
(declare-fun y$v3_1517448492_33 () utt$32)
(declare-fun y$v3_1517448492_33_op () utt$32)
(declare-fun y$v3_1517448492_35 () utt$32)
(declare-fun y$v3_1517448492_35_op () utt$32)
(declare-fun y$v3_1517448492_38 () utt$16)
(declare-fun y$v3_1517448492_38_op () utt$16)
(declare-fun y$v3_1517448492_43 () utt$32)
(declare-fun y$v3_1517448492_43_op () utt$32)
(declare-fun y$v3_1517448492_44 () utt$32)
(declare-fun y$v3_1517448492_44_op () utt$32)
(declare-fun y$v3_1517448492_45 () utt$32)
(declare-fun y$v3_1517448492_45_op () utt$32)
(declare-fun y$v3_1517448492_47 () utt$32)
(declare-fun y$v3_1517448492_47_op () utt$32)
(declare-fun y$v3_1517448492_50 () utt$16)
(declare-fun y$v3_1517448492_50_op () utt$16)
(declare-fun y$v3_1517448492_53 () Bool)
(declare-fun y$v3_1517448492_53_op () Bool)
(declare-fun y$v3_1517448492_55 () Bool)
(declare-fun y$v3_1517448492_55_op () Bool)
(declare-fun y$v3_1517448492_58 () Bool)
(declare-fun y$v3_1517448492_58_op () Bool)
(declare-fun y$v3_1517448492_62 () Bool)
(declare-fun y$v3_1517448492_62_op () Bool)
(declare-fun y$v3_1517448492_65 () Bool)
(declare-fun y$v3_1517448492_65_op () Bool)
(declare-fun y$v3_1517448492_67 () Bool)
(declare-fun y$v3_1517448492_67_op () Bool)
(declare-fun y$v3_1517448492_70 () Bool)
(declare-fun y$v3_1517448492_70_op () Bool)
(declare-fun y$v3_1517448492_74 () Bool)
(declare-fun y$v3_1517448492_74_op () Bool)
(declare-fun y$v3_1517448492_78 () Bool)
(declare-fun y$v3_1517448492_78_op () Bool)
(declare-fun y$v3_1517448492_79 () Bool)
(declare-fun y$v3_1517448492_79_op () Bool)
(declare-fun y$v3_1517448492_81 () Bool)
(declare-fun y$v3_1517448492_81_op () Bool)
(declare-fun y$v3_1517448492_83 () Bool)
(declare-fun y$v3_1517448492_83_op () Bool)
(declare-fun y$v3_1517448492_84 () Bool)
(declare-fun y$v3_1517448492_84_op () Bool)
(declare-fun y$v3_1517448492_86 () Bool)
(declare-fun y$v3_1517448492_86_op () Bool)
(declare-fun y$v3_1517448492_87 () Bool)
(declare-fun y$v3_1517448492_87_op () Bool)
(declare-fun y$v3_1517448492_88 () Bool)
(declare-fun y$v3_1517448492_88_op () Bool)
(declare-fun y$v3_1517448492_90 () Bool)
(declare-fun y$v3_1517448492_90_op () Bool)
(declare-fun y$v3_1517448492_91 () Bool)
(declare-fun y$v3_1517448492_91_op () Bool)
(declare-fun y$v3_1517448492_93 () Bool)
(declare-fun y$v3_1517448492_93_op () Bool)
(declare-fun y$v3_1517448492_94 () Bool)
(declare-fun y$v3_1517448492_94_op () Bool)
(declare-fun y$v3_1517448492_96 () Bool)
(declare-fun y$v3_1517448492_96_op () Bool)
(declare-fun y$v3_1517448492_97 () Bool)
(declare-fun y$v3_1517448492_97_op () Bool)
(declare-fun y$v3_1517448492_99 () Bool)
(declare-fun y$v3_1517448492_99_op () Bool)
(declare-fun y$v_c () utt$16)
(declare-fun y$v_c$next () utt$16)
(declare-fun y$v_c$next_rhs () utt$16)
(declare-fun y$v_c$next_rhs$next () utt$16)
(declare-fun y$v_c$next_rhs$next_op () utt$16)
(declare-fun y$v_c$next_rhs_op () utt$16)
(declare-fun y$v_x1 () utt$16)
(declare-fun y$v_x1$next () utt$16)
(declare-fun y$v_x1$next_rhs () utt$16)
(declare-fun y$v_x1$next_rhs_op () utt$16)
(declare-fun y$v_x2 () utt$16)
(declare-fun y$v_x2$next () utt$16)
(declare-fun y$v_x2$next_rhs () utt$16)
(declare-fun y$v_x2$next_rhs_op () utt$16)
(declare-fun y$w$1 () Bool)
(declare-fun y$w$1$next () Bool)
(declare-fun y$w$2 () utt$32)
(declare-fun y$w$2$next () utt$32)
(declare-fun y$w$2$next_op () utt$32)
(declare-fun y$w$2_op () utt$32)
(declare-fun y$w$3 () utt$16)
(declare-fun y$w$4 () utt$16)
(declare-fun y$w$5 () Bool)
(declare-fun y$w$6 () utt$32)
(declare-fun y$w$6_op () utt$32)
(declare-fun y$w$7 () Bool)
(declare-fun y$w$8 () utt$32)
(declare-fun y$w$8_op () utt$32)
(assert (distinct y$n0s16 y$n1s16 y$n849s16 y$n848s16))
(assert (distinct y$n16s32 y$n500s32 y$n849s32 y$n55640064s32 y$n0s32))
(assert (= y$dve_invalid (not y$13)))
(assert (= y$v3_1517448492_13_op (BitWiseXor_16_16_16 y$n1s16 y$v_c)))
(assert (= y$37 (Extract_1_15_15_16 y$v3_1517448492_13_op)))
(assert (= y$w$2_op (Concat_32_16_16 y$n0s16 y$v3_1517448492_13_op)))
(assert (= y$s$4_op (BitWiseNot_32_32 y$w$2_op)))
(assert (= y$v3_1517448492_19_op (ShiftR_32_32_32 y$s$4_op y$n16s32)))
(assert (= y$s$3_op (BitWiseNot_32_32 y$v3_1517448492_19_op)))
(assert (= y$v3_1517448492_18_op (ShiftR_32_32_32 y$w$2_op y$n16s32)))
(assert (= y$v3_1517448492_17_op (ite y$37 y$s$3_op y$v3_1517448492_18_op)))
(assert (= y$342 (= y$n849s32 y$v3_1517448492_17_op)))
(assert (= y$id20_op (and y$13 y$342)))
(assert (= y$id20_op (not y$345)))
(assert (= y$346 (= y$prop y$345)))
(assert (= y$v3_1517448492_25_op (ite y$f2 y$v_x1 y$v3_1517448492_13_op)))
(assert (= y$v3_1517448492_26_op (ite y$f5 y$v_x2 y$v3_1517448492_25_op)))
(assert (= y$v_c$next_rhs_op (BitWiseXor_16_16_16 y$n1s16 y$v3_1517448492_26_op)))
(assert (= y$34 (= y$v_c$next y$v_c$next_rhs_op)))
(assert (= y$52 (Extract_1_15_15_16 y$v_x1)))
(assert (= y$w$6_op (Concat_32_16_16 y$n0s16 y$v_x1)))
(assert (= y$s$7_op (BitWiseNot_32_32 y$w$6_op)))
(assert (= y$v3_1517448492_33_op (ShiftR_32_32_32 y$s$7_op y$n16s32)))
(assert (= y$s$6_op (BitWiseNot_32_32 y$v3_1517448492_33_op)))
(assert (= y$v3_1517448492_32_op (ShiftR_32_32_32 y$w$6_op y$n16s32)))
(assert (= y$v3_1517448492_31_op (ite y$52 y$s$6_op y$v3_1517448492_32_op)))
(assert (= y$v3_1517448492_35_op (Add_32_32_32 y$v3_1517448492_17_op y$v3_1517448492_31_op)))
(assert (= y$68 (Extract_16_15_0_32 y$v3_1517448492_35_op)))
(assert (= y$v3_1517448492_38_op (ite y$f0 y$v3_1517448492_13_op y$v_x1)))
(assert (= y$v_x1$next_rhs_op (ite y$f1 y$68 y$v3_1517448492_38_op)))
(assert (= y$75 (= y$v_x1$next y$v_x1$next_rhs_op)))
(assert (= y$78 (Extract_1_15_15_16 y$v_x2)))
(assert (= y$w$8_op (Concat_32_16_16 y$n0s16 y$v_x2)))
(assert (= y$s$9_op (BitWiseNot_32_32 y$w$8_op)))
(assert (= y$v3_1517448492_45_op (ShiftR_32_32_32 y$s$9_op y$n16s32)))
(assert (= y$s$8_op (BitWiseNot_32_32 y$v3_1517448492_45_op)))
(assert (= y$v3_1517448492_44_op (ShiftR_32_32_32 y$w$8_op y$n16s32)))
(assert (= y$v3_1517448492_43_op (ite y$78 y$s$8_op y$v3_1517448492_44_op)))
(assert (= y$v3_1517448492_47_op (Add_32_32_32 y$v3_1517448492_17_op y$v3_1517448492_43_op)))
(assert (= y$94 (Extract_16_15_0_32 y$v3_1517448492_47_op)))
(assert (= y$v3_1517448492_50_op (ite y$f3 y$v3_1517448492_13_op y$v_x2)))
(assert (= y$v_x2$next_rhs_op (ite y$f4 y$94 y$v3_1517448492_50_op)))
(assert (= y$101 (= y$v_x2$next y$v_x2$next_rhs_op)))
(assert (= y$a_Q_a1 (not y$1)))
(assert (= y$f0 (not y$103)))
(assert (= y$v3_1517448492_53_op (and y$1 y$103)))
(assert (= y$v3_1517448492_53_op (not y$106)))
(assert (= y$f2 (not y$107)))
(assert (= y$v3_1517448492_55_op (and y$106 y$107)))
(assert (= y$v3_1517448492_55_op (not y$110)))
(assert (= y$110 (not y$111)))
(assert (= y$112 (= y$a_Q_a1$next y$111)))
(assert (= y$a_R_a1 (not y$5)))
(assert (= y$v3_1517448492_58_op (and y$5 y$103)))
(assert (= y$v3_1517448492_58_op (not y$116)))
(assert (= y$f1 (not y$117)))
(assert (= y$a_R_a1$next_rhs_op (and y$116 y$117)))
(assert (= y$120 (= y$a_R_a1$next y$a_R_a1$next_rhs_op)))
(assert (= y$a_S_a1 (not y$9)))
(assert (= y$v3_1517448492_62_op (and y$9 y$117)))
(assert (= y$v3_1517448492_62_op (not y$124)))
(assert (= y$a_S_a1$next_rhs_op (and y$107 y$124)))
(assert (= y$127 (= y$a_S_a1$next y$a_S_a1$next_rhs_op)))
(assert (= y$a_Q_a2 (not y$3)))
(assert (= y$f3 (not y$129)))
(assert (= y$v3_1517448492_65_op (and y$3 y$129)))
(assert (= y$v3_1517448492_65_op (not y$132)))
(assert (= y$f5 (not y$133)))
(assert (= y$v3_1517448492_67_op (and y$132 y$133)))
(assert (= y$v3_1517448492_67_op (not y$136)))
(assert (= y$136 (not y$137)))
(assert (= y$138 (= y$a_Q_a2$next y$137)))
(assert (= y$a_R_a2 (not y$7)))
(assert (= y$v3_1517448492_70_op (and y$7 y$129)))
(assert (= y$v3_1517448492_70_op (not y$142)))
(assert (= y$f4 (not y$143)))
(assert (= y$a_R_a2$next_rhs_op (and y$142 y$143)))
(assert (= y$146 (= y$a_R_a2$next y$a_R_a2$next_rhs_op)))
(assert (= y$a_S_a2 (not y$11)))
(assert (= y$v3_1517448492_74_op (and y$11 y$143)))
(assert (= y$v3_1517448492_74_op (not y$150)))
(assert (= y$a_S_a2$next_rhs_op (and y$133 y$150)))
(assert (= y$153 (= y$a_S_a2$next y$a_S_a2$next_rhs_op)))
(assert (= y$v3_1517448492_78_op (GrEq_1_32_32 y$v3_1517448492_17_op y$n500s32)))
(assert (= y$v3_1517448492_78_op (not y$158)))
(assert (= y$v3_1517448492_79_op (and y$1 y$158)))
(assert (= y$v3_1517448492_79_op (not y$161)))
(assert (= y$v3_1517448492_81_op (and y$f0 y$161)))
(assert (= y$v3_1517448492_81_op (not y$164)))
(assert (= y$v3_1517448492_83_op (and y$5 y$f1)))
(assert (= y$v3_1517448492_83_op (not y$167)))
(assert (= y$v3_1517448492_84_op (and y$164 y$167)))
(assert (= y$v3_1517448492_86_op (and y$9 y$f2)))
(assert (= y$v3_1517448492_86_op (not y$172)))
(assert (= y$v3_1517448492_87_op (and y$v3_1517448492_84_op y$172)))
(assert (= y$v3_1517448492_88_op (and y$3 y$158)))
(assert (= y$v3_1517448492_88_op (not y$177)))
(assert (= y$v3_1517448492_90_op (and y$f3 y$177)))
(assert (= y$v3_1517448492_90_op (not y$180)))
(assert (= y$v3_1517448492_91_op (and y$v3_1517448492_87_op y$180)))
(assert (= y$v3_1517448492_93_op (and y$7 y$f4)))
(assert (= y$v3_1517448492_93_op (not y$185)))
(assert (= y$v3_1517448492_94_op (and y$v3_1517448492_91_op y$185)))
(assert (= y$v3_1517448492_96_op (and y$11 y$f5)))
(assert (= y$v3_1517448492_96_op (not y$190)))
(assert (= y$v3_1517448492_97_op (and y$v3_1517448492_94_op y$190)))
(assert (= y$v3_1517448492_99_op (and y$103 y$117)))
(assert (= y$v3_1517448492_99_op (not y$195)))
(assert (= y$195 (not y$196)))
(assert (= y$v3_1517448492_101_op (and y$107 y$196)))
(assert (= y$v3_1517448492_101_op (not y$199)))
(assert (= y$199 (not y$200)))
(assert (= y$v3_1517448492_103_op (and y$129 y$200)))
(assert (= y$v3_1517448492_103_op (not y$203)))
(assert (= y$203 (not y$204)))
(assert (= y$v3_1517448492_105_op (and y$143 y$204)))
(assert (= y$v3_1517448492_105_op (not y$207)))
(assert (= y$207 (not y$208)))
(assert (= y$v3_1517448492_107_op (and y$133 y$208)))
(assert (= y$v3_1517448492_107_op (not y$211)))
(assert (= y$v3_1517448492_108_op (and y$v3_1517448492_97_op y$211)))
(assert (= y$v3_1517448492_109_op (and y$f1 y$f0)))
(assert (= y$v3_1517448492_109_op (not y$216)))
(assert (= y$v3_1517448492_110_op (and y$f2 y$195)))
(assert (= y$v3_1517448492_110_op (not y$219)))
(assert (= y$v3_1517448492_112_op (and y$216 y$219)))
(assert (= y$v3_1517448492_112_op (not y$222)))
(assert (= y$222 (not y$223)))
(assert (= y$v3_1517448492_113_op (and y$f3 y$199)))
(assert (= y$v3_1517448492_113_op (not y$226)))
(assert (= y$v3_1517448492_115_op (and y$223 y$226)))
(assert (= y$v3_1517448492_115_op (not y$229)))
(assert (= y$229 (not y$230)))
(assert (= y$v3_1517448492_116_op (and y$f4 y$203)))
(assert (= y$v3_1517448492_116_op (not y$233)))
(assert (= y$v3_1517448492_118_op (and y$230 y$233)))
(assert (= y$v3_1517448492_118_op (not y$236)))
(assert (= y$236 (not y$237)))
(assert (= y$v3_1517448492_119_op (and y$f5 y$207)))
(assert (= y$v3_1517448492_119_op (not y$240)))
(assert (= y$v3_1517448492_121_op (and y$237 y$240)))
(assert (= y$v3_1517448492_121_op (not y$243)))
(assert (= y$243 (not y$244)))
(assert (= y$v3_1517448492_122_op (and y$v3_1517448492_108_op y$244)))
(assert (= y$v3_1517448492_123_op (and y$1 y$a_R_a1)))
(assert (= y$v3_1517448492_123_op (not y$249)))
(assert (= y$v3_1517448492_125_op (and y$a_Q_a1 y$5)))
(assert (= y$v3_1517448492_125_op (not y$252)))
(assert (= y$v3_1517448492_126_op (and y$a_S_a1 y$252)))
(assert (= y$v3_1517448492_126_op (not y$255)))
(assert (= y$v3_1517448492_128_op (and y$249 y$255)))
(assert (= y$v3_1517448492_128_op (not y$258)))
(assert (= y$258 (not y$259)))
(assert (= y$252 (not y$260)))
(assert (= y$v3_1517448492_130_op (and y$9 y$260)))
(assert (= y$v3_1517448492_130_op (not y$263)))
(assert (= y$v3_1517448492_131_op (and y$259 y$263)))
(assert (= y$v3_1517448492_132_op (and y$3 y$a_R_a2)))
(assert (= y$v3_1517448492_132_op (not y$268)))
(assert (= y$v3_1517448492_134_op (and y$a_Q_a2 y$7)))
(assert (= y$v3_1517448492_134_op (not y$271)))
(assert (= y$v3_1517448492_135_op (and y$a_S_a2 y$271)))
(assert (= y$v3_1517448492_135_op (not y$274)))
(assert (= y$v3_1517448492_137_op (and y$268 y$274)))
(assert (= y$v3_1517448492_137_op (not y$277)))
(assert (= y$277 (not y$278)))
(assert (= y$v3_1517448492_138_op (and y$v3_1517448492_131_op y$278)))
(assert (= y$271 (not y$281)))
(assert (= y$v3_1517448492_140_op (and y$11 y$281)))
(assert (= y$v3_1517448492_140_op (not y$284)))
(assert (= y$v3_1517448492_141_op (and y$v3_1517448492_138_op y$284)))
(assert (= y$v3_1517448492_142_op (and y$v3_1517448492_122_op y$v3_1517448492_141_op)))
(assert (= y$v3_1517448492_143_op (and y$110 y$a_R_a1$next_rhs_op)))
(assert (= y$v3_1517448492_143_op (not y$291)))
(assert (= y$a_R_a1$next_rhs_op (not y$292)))
(assert (= y$v3_1517448492_145_op (and y$111 y$292)))
(assert (= y$v3_1517448492_145_op (not y$295)))
(assert (= y$v3_1517448492_146_op (and y$a_S_a1$next_rhs_op y$295)))
(assert (= y$v3_1517448492_146_op (not y$298)))
(assert (= y$v3_1517448492_148_op (and y$291 y$298)))
(assert (= y$v3_1517448492_148_op (not y$301)))
(assert (= y$301 (not y$302)))
(assert (= y$a_S_a1$next_rhs_op (not y$303)))
(assert (= y$295 (not y$304)))
(assert (= y$v3_1517448492_150_op (and y$303 y$304)))
(assert (= y$v3_1517448492_150_op (not y$307)))
(assert (= y$v3_1517448492_151_op (and y$302 y$307)))
(assert (= y$v3_1517448492_152_op (and y$136 y$a_R_a2$next_rhs_op)))
(assert (= y$v3_1517448492_152_op (not y$312)))
(assert (= y$a_R_a2$next_rhs_op (not y$313)))
(assert (= y$v3_1517448492_154_op (and y$137 y$313)))
(assert (= y$v3_1517448492_154_op (not y$316)))
(assert (= y$v3_1517448492_155_op (and y$a_S_a2$next_rhs_op y$316)))
(assert (= y$v3_1517448492_155_op (not y$319)))
(assert (= y$v3_1517448492_157_op (and y$312 y$319)))
(assert (= y$v3_1517448492_157_op (not y$322)))
(assert (= y$322 (not y$323)))
(assert (= y$v3_1517448492_158_op (and y$v3_1517448492_151_op y$323)))
(assert (= y$a_S_a2$next_rhs_op (not y$326)))
(assert (= y$316 (not y$327)))
(assert (= y$v3_1517448492_160_op (and y$326 y$327)))
(assert (= y$v3_1517448492_160_op (not y$330)))
(assert (= y$v3_1517448492_161_op (and y$v3_1517448492_158_op y$330)))
(assert (= y$v3_1517448492_162_op (and y$v3_1517448492_142_op y$v3_1517448492_161_op)))
(assert (= y$v3_1517448492_163_op (and y$13 y$v3_1517448492_162_op)))
(assert (= y$v3_1517448492_163_op (not y$337)))
(assert (= y$338 (= y$dve_invalid$next y$337)))
(assert (= y$339 (and y$34 y$75 y$101 y$112 y$120 y$127 y$138 y$146 y$153 y$338)))
(assert (= y$dve_invalid$next (not y$361)))
(assert (= y$v3_1517448492_13$next_op (BitWiseXor_16_16_16 y$n1s16 y$v_c$next)))
(assert (= y$364 (Extract_1_15_15_16 y$v3_1517448492_13$next_op)))
(assert (= y$w$2$next_op (Concat_32_16_16 y$n0s16 y$v3_1517448492_13$next_op)))
(assert (= y$s$4$next_op (BitWiseNot_32_32 y$w$2$next_op)))
(assert (= y$v3_1517448492_19$next_op (ShiftR_32_32_32 y$s$4$next_op y$n16s32)))
(assert (= y$s$3$next_op (BitWiseNot_32_32 y$v3_1517448492_19$next_op)))
(assert (= y$v3_1517448492_18$next_op (ShiftR_32_32_32 y$w$2$next_op y$n16s32)))
(assert (= y$v3_1517448492_17$next_op (ite y$364 y$s$3$next_op y$v3_1517448492_18$next_op)))
(assert (= y$378 (= y$n849s32 y$v3_1517448492_17$next_op)))
(assert (= y$id20$next_op (and y$361 y$378)))
(assert (= y$id20$next_op (not y$381)))
(assert (= y$382 (= y$prop$next y$381)))
(assert (= y$prop$next (not y$360)))
(assert (= y$401 (= y$n0s16 y$v_c$next)))
(assert (= y$402 (= y$n849s32 y$v3_1517448492_18$next_op)))
(assert (= y$403 (and y$401 y$402)))
(assert (= y$403 (not y$405)))
(assert (= y$16 (= y$n0s16 y$v_c)))
(assert (= y$395 (= y$n849s32 y$v3_1517448492_18_op)))
(assert (= y$400 (and y$16 y$395)))
(assert (= y$400 (not y$404)))
(assert (= y$443 (not (= y$n849s32 y$s$3$next_op))))
(assert (= y$440 (not (= y$n849s32 y$s$3_op))))
(assert (= y$477 (not (= y$n1s16 y$v3_1517448492_13$next_op))))
(assert (= y$524 (and y$401 y$477)))
(assert (= y$524 (not y$526)))
(assert (= y$394 (not (= y$n1s16 y$v3_1517448492_13_op))))
(assert (= y$523 (and y$16 y$394)))
(assert (= y$523 (not y$525)))
(assert (= (= y$n1s16 y$v3_1517448492_13_op) y$533))
(assert (= y$18 (= y$n0s16 y$v_x1)))
(assert (= y$541 (and y$18 y$402 y$34 y$133 y$533)))
(assert (= y$541 (not y$542)))
(assert (= y$558 (and y$prop y$346 y$405 y$404 y$443 y$440 y$339 y$382 y$360 y$526 y$525 y$542)))
(assert y$558)
(assert (distinct y$n0s16 y$n1s16 y$n849s16 y$n848s16))
(assert (distinct y$n16s32 y$n500s32 y$n849s32 y$n55640064s32 y$n0s32))
(assert (= y$v3_1517448492_13_op (BitWiseXor_16_16_16 y$n1s16 y$v_c)))
(assert (= y$w$2_op (Concat_32_16_16 y$n0s16 y$v3_1517448492_13_op)))
(assert (= y$v3_1517448492_18_op (ShiftR_32_32_32 y$w$2_op y$n16s32)))
(assert (= y$395 (= y$n849s32 y$v3_1517448492_18_op)))
(assert (= (= y$n1s16 y$v3_1517448492_13_op) y$533))
(assert (= y$581 (and y$395 y$533)))
(assert (= y$581 (not y$583)))
(assert y$583)
(assert (= y$v3_1517448492_13$next_op (BitWiseXor_16_16_16 y$n1s16 y$v_c$next)))
(assert (= y$w$2$next_op (Concat_32_16_16 y$n0s16 y$v3_1517448492_13$next_op)))
(assert (= y$v3_1517448492_18$next_op (ShiftR_32_32_32 y$w$2$next_op y$n16s32)))
(assert (= y$402 (= y$n849s32 y$v3_1517448492_18$next_op)))
(assert (= (= y$n1s16 y$v3_1517448492_13$next_op) y$528))
(assert (= y$580 (and y$402 y$528)))
(assert (= y$580 (not y$582)))
(assert y$582)
(assert (distinct y$n0s16 y$n1s16 y$n849s16 y$n848s16))
(assert (distinct y$n16s32 y$n500s32 y$n849s32 y$n55640064s32 y$n0s32))
(check-sat)
(exit)
